experiment/data/lkh-res/Vrp-Set-X-n209/Vrp-Set-X-n209-lkh/0.lkh1.vrp
NAME : 0
COMMENT : CVRP Instance
TYPE : CVRP
DIMENSION : 209
EDGE_WEIGHT_TYPE : EUC_2D
CAPACITY : 101
NODE_COORD_SECTION
1	0	0
2	48700	94900
3	49200	77000
4	15000	55600
5	13000	71900
6	96200	39300
7	5400	89000
8	86100	70500
9	33800	63100
10	11900	74100
11	4800	29600
12	98200	82700
13	1800	95400
14	55800	69800
15	85700	33700
16	96300	7200
17	21800	4600
18	70500	48400
19	31500	300
20	33100	35800
21	68800	15600
22	31400	33800
23	21400	42800
24	19300	86600
25	38100	92400
26	96800	1000
27	79700	38200
28	73300	54400
29	95600	87800
30	57600	27000
31	25700	77800
32	71300	60500
33	27000	94000
34	88000	40100
35	24500	16800
36	97300	2900
37	88800	91900
38	94300	70300
39	36400	24800
40	93200	6000
41	57500	1800
42	66300	99000
43	66700	35100
44	8500	70800
45	80100	33000
46	26100	9100
47	16300	95300
48	50900	24900
49	23700	33600
50	79100	35600
51	31400	16800
52	35600	72600
53	26000	41200
54	63000	14400
55	53400	25500
56	35600	44400
57	44800	32000
58	98700	33300
59	69100	10900
60	31900	47600
61	8300	71600
62	39500	81800
63	60500	76900
64	63300	16200
65	65100	64400
66	22100	400
67	55100	91200
68	76200	60400
69	33700	4100
70	15600	31800
71	75600	35700
72	74900	17300
73	53500	23500
74	71900	70000
75	90000	56400
76	71700	400
77	33700	44100
78	75900	10300
79	61500	13200
80	36500	49800
81	4200	26800
82	95200	200
83	98900	30300
84	47100	82100
85	65000	21500
86	30200	88100
87	6100	45900
88	39100	40500
89	36400	17000
90	64300	74400
91	32400	62000
92	55900	44900
93	9200	91400
94	13300	60700
95	22300	94900
96	98800	41500
97	94300	61600
98	76400	600
99	65900	25000
100	76600	53200
101	73000	33800
102	85000	48900
103	48100	46700
104	56400	29600
105	46900	53100
106	53800	12100
107	99700	18300
108	12700	96600
109	88000	53800
110	30000	98500
111	46200	12500
112	78100	6800
113	88400	9200
114	43800	67300
115	59100	65800
116	92800	89400
117	10700	81600
118	58100	79900
119	4600	28800
120	54800	0
121	37900	72500
122	18600	49000
123	94700	16100
124	70200	71200
125	23000	72200
126	4000	89100
127	36200	56800
128	2600	61400
129	39600	10400
130	75600	65800
131	81800	43300
132	23600	6200
133	31400	5600
134	27600	46600
135	78900	82800
136	62600	67700
137	62600	15600
138	36900	50600
139	20700	46100
140	56600	84200
141	67600	87100
142	13500	98300
143	95600	18100
144	500	20900
145	1000	5700
146	49900	61700
147	36900	48200
148	97500	19400
149	88200	46500
150	71600	14700
151	74000	99300
152	7700	48000
153	74200	23300
154	86900	82400
155	80900	98700
156	99900	51400
157	74800	39100
158	36600	91700
159	27200	87500
160	0	900
161	26000	35900
162	44900	20800
163	27800	71100
164	42200	44500
165	34100	44800
166	68300	49800
167	93000	69000
168	18400	56700
169	25700	36000
170	46400	10100
171	78300	64500
172	28200	88400
173	97800	68800
174	51400	34900
175	34300	55200
176	29000	17100
177	67500	41400
178	38600	8600
179	57500	2600
180	86300	97300
181	22300	41200
182	95800	17600
183	39100	82400
184	22800	9300
185	70400	94600
186	93800	99500
187	15900	34300
188	69800	10600
189	89600	16900
190	36100	93700
191	20100	12000
192	15800	85200
193	78600	63000
194	9100	90900
195	29100	33300
196	57500	93100
197	6000	76300
198	32100	83700
199	15400	30200
200	49000	21500
201	61200	39400
202	7000	15900
203	97200	98700
204	52700	34000
205	3400	24100
206	68800	33400
207	87800	48500
208	88500	20500
209	12400	41300
DEMAND_SECTION
1	0
2	7
3	6
4	7
5	8
6	10
7	7
8	7
9	10
10	8
11	5
12	6
13	5
14	6
15	5
16	8
17	5
18	8
19	6
20	6
21	7
22	5
23	9
24	10
25	6
26	6
27	6
28	7
29	8
30	9
31	7
32	6
33	6
34	10
35	5
36	5
37	8
38	10
39	9
40	9
41	6
42	7
43	9
44	9
45	10
46	9
47	10
48	10
49	8
50	7
51	10
52	5
53	9
54	8
55	7
56	5
57	9
58	10
59	6
60	9
61	6
62	5
63	8
64	8
65	6
66	8
67	8
68	6
69	6
70	5
71	10
72	8
73	6
74	9
75	6
76	8
77	10
78	7
79	9
80	7
81	10
82	6
83	10
84	6
85	8
86	6
87	8
88	5
89	5
90	7
91	10
92	5
93	7
94	5
95	10
96	9
97	6
98	6
99	9
100	10
101	8
102	9
103	6
104	8
105	5
106	6
107	7
108	10
109	9
110	7
111	9
112	7
113	10
114	9
115	8
116	6
117	5
118	8
119	7
120	7
121	8
122	7
123	5
124	7
125	5
126	5
127	7
128	7
129	7
130	7
131	5
132	6
133	7
134	5
135	9
136	5
137	8
138	9
139	10
140	8
141	8
142	10
143	6
144	9
145	9
146	10
147	5
148	8
149	5
150	9
151	5
152	8
153	9
154	10
155	7
156	8
157	10
158	6
159	8
160	9
161	5
162	6
163	7
164	5
165	9
166	6
167	8
168	10
169	9
170	5
171	6
172	9
173	5
174	7
175	6
176	8
177	10
178	7
179	8
180	9
181	7
182	10
183	9
184	6
185	9
186	7
187	7
188	10
189	5
190	5
191	6
192	9
193	9
194	6
195	6
196	8
197	7
198	9
199	10
200	6
201	6
202	10
203	5
204	8
205	7
206	5
207	10
208	8
209	10
DEPOT_SECTION
1
-1
EOF
