experiment/data/lkh-res/Vrp-Set-X-n209/Vrp-Set-X-n209-lkh/0.lkh1.log
PARAMETER_FILE = baseline_results/cvrp_lkh/Vrp-Set-X-n209/Vrp-Set-X-n209-lkh/0.lkh1.par
Reading PROBLEM_FILE: "baseline_results/cvrp_lkh/Vrp-Set-X-n209/Vrp-Set-X-n209-lkh/0.lkh1.vrp" ... done
ASCENT_CANDIDATES = 50
BACKBONE_TRIALS = 0
BACKTRACKING = NO
# BWTSP =
# CANDIDATE_FILE =
CANDIDATE_SET_TYPE = ALPHA
# DISTANCE =
DEPOT = 1
# EDGE_FILE =
EXCESS = 0.00478469
EXTERNAL_SALESMEN = 0
EXTRA_CANDIDATES = 0 
EXTRA_CANDIDATE_SET_TYPE = QUADRANT
GAIN23 = NO
GAIN_CRITERION = YES
INITIAL_PERIOD = 104
INITIAL_STEP_SIZE = 1
INITIAL_TOUR_ALGORITHM = WALK
# INITIAL_TOUR_FILE = 
INITIAL_TOUR_FRACTION = 1.000
# INPUT_TOUR_FILE = 
KICK_TYPE = 4
KICKS = 1
# MAX_BREADTH =
MAKESPAN = NO
MAX_CANDIDATES = 5 
MAX_SWAPS = 0
MAX_TRIALS = 10000
# MERGE_TOUR_FILE =
MOVE_TYPE = 5 SPECIAL
MTSP_MIN_SIZE = 1
MTSP_MAX_SIZE = 208
# MTSP_SOLUTION_FILE = 
# NONSEQUENTIAL_MOVE_TYPE = 5
# OPTIMUM =
OUTPUT_TOUR_FILE = baseline_results/cvrp_lkh/Vrp-Set-X-n209/Vrp-Set-X-n209-lkh/0.lkh1.tour
PATCHING_A = 1 
PATCHING_C = 0 
# PI_FILE = 
POPMUSIC_INITIAL_TOUR = NO
POPMUSIC_MAX_NEIGHBORS = 5
POPMUSIC_SAMPLE_SIZE = 10
POPMUSIC_SOLUTIONS = 50
POPMUSIC_TRIALS = 1
POPULATION_SIZE = 10
PRECISION = 100
PROBLEM_FILE = baseline_results/cvrp_lkh/Vrp-Set-X-n209/Vrp-Set-X-n209-lkh/0.lkh1.vrp
RECOMBINATION = IPT
RESTRICTED_SEARCH = YES
RUNS = 1
SALESMEN = 16
SCALE = 1
SEED = 1234
# SINTEF_SOLUTION_FILE = 
STOP_AT_OPTIMUM = YES
SUBGRADIENT = YES
# SUBPROBLEM_SIZE =
# SUBPROBLEM_TOUR_FILE = 
SUBSEQUENT_MOVE_TYPE = 5 SPECIAL
SUBSEQUENT_PATCHING = YES
# TIME_LIMIT =
# TOTAL_TIME_LIMIT =
# TOUR_FILE = 
TRACE_LEVEL = 1
VEHICLES = 16

Lower bound = 1731756.5, Ascent time = 0.05 sec.
Cand.min = 2, Cand.avg = 5.0, Cand.max = 5
Preprocessing time = 0.05 sec.
* 1: Cost = 0_3299477, Time = 0.04 sec. 
Writing OUTPUT_TOUR_FILE: "baseline_results/cvrp_lkh/Vrp-Set-X-n209/Vrp-Set-X-n209-lkh/0.lkh1.tour" ... done
* 2: Cost = 0_3245380, Time = 0.04 sec. 
Writing OUTPUT_TOUR_FILE: "baseline_results/cvrp_lkh/Vrp-Set-X-n209/Vrp-Set-X-n209-lkh/0.lkh1.tour" ... done
* 3: Cost = 0_3226394, Time = 0.06 sec. 
Writing OUTPUT_TOUR_FILE: "baseline_results/cvrp_lkh/Vrp-Set-X-n209/Vrp-Set-X-n209-lkh/0.lkh1.tour" ... done
* 6: Cost = 0_3204738, Time = 0.06 sec. 
Writing OUTPUT_TOUR_FILE: "baseline_results/cvrp_lkh/Vrp-Set-X-n209/Vrp-Set-X-n209-lkh/0.lkh1.tour" ... done
* 8: Cost = 0_3170362, Time = 0.08 sec. 
Writing OUTPUT_TOUR_FILE: "baseline_results/cvrp_lkh/Vrp-Set-X-n209/Vrp-Set-X-n209-lkh/0.lkh1.tour" ... done
* 38: Cost = 0_3168610, Time = 0.21 sec. 
Writing OUTPUT_TOUR_FILE: "baseline_results/cvrp_lkh/Vrp-Set-X-n209/Vrp-Set-X-n209-lkh/0.lkh1.tour" ... done
* 39: Cost = 0_3167211, Time = 0.21 sec. 
Writing OUTPUT_TOUR_FILE: "baseline_results/cvrp_lkh/Vrp-Set-X-n209/Vrp-Set-X-n209-lkh/0.lkh1.tour" ... done
* 54: Cost = 0_3167056, Time = 0.27 sec. 
Writing OUTPUT_TOUR_FILE: "baseline_results/cvrp_lkh/Vrp-Set-X-n209/Vrp-Set-X-n209-lkh/0.lkh1.tour" ... done
* 61: Cost = 0_3166382, Time = 0.29 sec. 
Writing OUTPUT_TOUR_FILE: "baseline_results/cvrp_lkh/Vrp-Set-X-n209/Vrp-Set-X-n209-lkh/0.lkh1.tour" ... done
* 72: Cost = 0_3165911, Time = 0.37 sec. 
Writing OUTPUT_TOUR_FILE: "baseline_results/cvrp_lkh/Vrp-Set-X-n209/Vrp-Set-X-n209-lkh/0.lkh1.tour" ... done
* 77: Cost = 0_3161469, Time = 0.40 sec. 
Writing OUTPUT_TOUR_FILE: "baseline_results/cvrp_lkh/Vrp-Set-X-n209/Vrp-Set-X-n209-lkh/0.lkh1.tour" ... done
* 84: Cost = 0_3141647, Time = 0.45 sec. 
Writing OUTPUT_TOUR_FILE: "baseline_results/cvrp_lkh/Vrp-Set-X-n209/Vrp-Set-X-n209-lkh/0.lkh1.tour" ... done
* 85: Cost = 0_3141249, Time = 0.45 sec. 
Writing OUTPUT_TOUR_FILE: "baseline_results/cvrp_lkh/Vrp-Set-X-n209/Vrp-Set-X-n209-lkh/0.lkh1.tour" ... done
* 105: Cost = 0_3140523, Time = 0.56 sec. 
Writing OUTPUT_TOUR_FILE: "baseline_results/cvrp_lkh/Vrp-Set-X-n209/Vrp-Set-X-n209-lkh/0.lkh1.tour" ... done
* 108: Cost = 0_3139691, Time = 0.57 sec. 
Writing OUTPUT_TOUR_FILE: "baseline_results/cvrp_lkh/Vrp-Set-X-n209/Vrp-Set-X-n209-lkh/0.lkh1.tour" ... done
* 119: Cost = 0_3137429, Time = 0.61 sec. 
Writing OUTPUT_TOUR_FILE: "baseline_results/cvrp_lkh/Vrp-Set-X-n209/Vrp-Set-X-n209-lkh/0.lkh1.tour" ... done
* 121: Cost = 0_3135002, Time = 0.62 sec. 
Writing OUTPUT_TOUR_FILE: "baseline_results/cvrp_lkh/Vrp-Set-X-n209/Vrp-Set-X-n209-lkh/0.lkh1.tour" ... done
* 122: Cost = 0_3131429, Time = 0.63 sec. 
Writing OUTPUT_TOUR_FILE: "baseline_results/cvrp_lkh/Vrp-Set-X-n209/Vrp-Set-X-n209-lkh/0.lkh1.tour" ... done
* 126: Cost = 0_3131270, Time = 0.65 sec. 
Writing OUTPUT_TOUR_FILE: "baseline_results/cvrp_lkh/Vrp-Set-X-n209/Vrp-Set-X-n209-lkh/0.lkh1.tour" ... done
* 132: Cost = 0_3130915, Time = 0.70 sec. 
Writing OUTPUT_TOUR_FILE: "baseline_results/cvrp_lkh/Vrp-Set-X-n209/Vrp-Set-X-n209-lkh/0.lkh1.tour" ... done
* 138: Cost = 0_3128351, Time = 0.73 sec. 
Writing OUTPUT_TOUR_FILE: "baseline_results/cvrp_lkh/Vrp-Set-X-n209/Vrp-Set-X-n209-lkh/0.lkh1.tour" ... done
* 161: Cost = 0_3128184, Time = 0.85 sec. 
Writing OUTPUT_TOUR_FILE: "baseline_results/cvrp_lkh/Vrp-Set-X-n209/Vrp-Set-X-n209-lkh/0.lkh1.tour" ... done
* 168: Cost = 0_3125212, Time = 0.91 sec. 
Writing OUTPUT_TOUR_FILE: "baseline_results/cvrp_lkh/Vrp-Set-X-n209/Vrp-Set-X-n209-lkh/0.lkh1.tour" ... done
* 181: Cost = 0_3119791, Time = 0.99 sec. 
Writing OUTPUT_TOUR_FILE: "baseline_results/cvrp_lkh/Vrp-Set-X-n209/Vrp-Set-X-n209-lkh/0.lkh1.tour" ... done
* 273: Cost = 0_3117932, Time = 1.49 sec. 
Writing OUTPUT_TOUR_FILE: "baseline_results/cvrp_lkh/Vrp-Set-X-n209/Vrp-Set-X-n209-lkh/0.lkh1.tour" ... done
* 276: Cost = 0_3117532, Time = 1.50 sec. 
Writing OUTPUT_TOUR_FILE: "baseline_results/cvrp_lkh/Vrp-Set-X-n209/Vrp-Set-X-n209-lkh/0.lkh1.tour" ... done
* 303: Cost = 0_3117467, Time = 1.63 sec. 
Writing OUTPUT_TOUR_FILE: "baseline_results/cvrp_lkh/Vrp-Set-X-n209/Vrp-Set-X-n209-lkh/0.lkh1.tour" ... done
* 348: Cost = 0_3116163, Time = 1.91 sec. 
Writing OUTPUT_TOUR_FILE: "baseline_results/cvrp_lkh/Vrp-Set-X-n209/Vrp-Set-X-n209-lkh/0.lkh1.tour" ... done
* 2987: Cost = 0_3110563, Time = 19.14 sec. 
Writing OUTPUT_TOUR_FILE: "baseline_results/cvrp_lkh/Vrp-Set-X-n209/Vrp-Set-X-n209-lkh/0.lkh1.tour" ... done
* 2989: Cost = 0_3108659, Time = 19.17 sec. 
Writing OUTPUT_TOUR_FILE: "baseline_results/cvrp_lkh/Vrp-Set-X-n209/Vrp-Set-X-n209-lkh/0.lkh1.tour" ... done
* 3019: Cost = 0_3108525, Time = 19.28 sec. 
Writing OUTPUT_TOUR_FILE: "baseline_results/cvrp_lkh/Vrp-Set-X-n209/Vrp-Set-X-n209-lkh/0.lkh1.tour" ... done
* 3033: Cost = 0_3107346, Time = 19.38 sec. 
Writing OUTPUT_TOUR_FILE: "baseline_results/cvrp_lkh/Vrp-Set-X-n209/Vrp-Set-X-n209-lkh/0.lkh1.tour" ... done
* 3034: Cost = 0_3107264, Time = 19.39 sec. 
Writing OUTPUT_TOUR_FILE: "baseline_results/cvrp_lkh/Vrp-Set-X-n209/Vrp-Set-X-n209-lkh/0.lkh1.tour" ... done
* 3237: Cost = 0_3106566, Time = 20.90 sec. 
Writing OUTPUT_TOUR_FILE: "baseline_results/cvrp_lkh/Vrp-Set-X-n209/Vrp-Set-X-n209-lkh/0.lkh1.tour" ... done
* 3474: Cost = 0_3097436, Time = 22.68 sec. 
Writing OUTPUT_TOUR_FILE: "baseline_results/cvrp_lkh/Vrp-Set-X-n209/Vrp-Set-X-n209-lkh/0.lkh1.tour" ... done
* 3476: Cost = 0_3093336, Time = 22.68 sec. 
Writing OUTPUT_TOUR_FILE: "baseline_results/cvrp_lkh/Vrp-Set-X-n209/Vrp-Set-X-n209-lkh/0.lkh1.tour" ... done
* 3498: Cost = 0_3092963, Time = 22.89 sec. 
Writing OUTPUT_TOUR_FILE: "baseline_results/cvrp_lkh/Vrp-Set-X-n209/Vrp-Set-X-n209-lkh/0.lkh1.tour" ... done
* 3504: Cost = 0_3092804, Time = 22.93 sec. 
Writing OUTPUT_TOUR_FILE: "baseline_results/cvrp_lkh/Vrp-Set-X-n209/Vrp-Set-X-n209-lkh/0.lkh1.tour" ... done
* 3515: Cost = 0_3092093, Time = 23.02 sec. 
Writing OUTPUT_TOUR_FILE: "baseline_results/cvrp_lkh/Vrp-Set-X-n209/Vrp-Set-X-n209-lkh/0.lkh1.tour" ... done
* 3523: Cost = 0_3090092, Time = 23.07 sec. 
Writing OUTPUT_TOUR_FILE: "baseline_results/cvrp_lkh/Vrp-Set-X-n209/Vrp-Set-X-n209-lkh/0.lkh1.tour" ... done
* 3541: Cost = 0_3088588, Time = 23.22 sec. 
Writing OUTPUT_TOUR_FILE: "baseline_results/cvrp_lkh/Vrp-Set-X-n209/Vrp-Set-X-n209-lkh/0.lkh1.tour" ... done
* 3959: Cost = 0_3088108, Time = 26.28 sec. 
Writing OUTPUT_TOUR_FILE: "baseline_results/cvrp_lkh/Vrp-Set-X-n209/Vrp-Set-X-n209-lkh/0.lkh1.tour" ... done
* 5040: Cost = 0_3086413, Time = 35.19 sec. 
Writing OUTPUT_TOUR_FILE: "baseline_results/cvrp_lkh/Vrp-Set-X-n209/Vrp-Set-X-n209-lkh/0.lkh1.tour" ... done
* 6376: Cost = 0_3084794, Time = 44.74 sec. 
Writing OUTPUT_TOUR_FILE: "baseline_results/cvrp_lkh/Vrp-Set-X-n209/Vrp-Set-X-n209-lkh/0.lkh1.tour" ... done
* 6806: Cost = 0_3084288, Time = 47.69 sec. 
Writing OUTPUT_TOUR_FILE: "baseline_results/cvrp_lkh/Vrp-Set-X-n209/Vrp-Set-X-n209-lkh/0.lkh1.tour" ... done
* 8597: Cost = 0_3083741, Time = 60.55 sec. 
Writing OUTPUT_TOUR_FILE: "baseline_results/cvrp_lkh/Vrp-Set-X-n209/Vrp-Set-X-n209-lkh/0.lkh1.tour" ... done
* 9616: Cost = 0_3083235, Time = 68.04 sec. 
Writing OUTPUT_TOUR_FILE: "baseline_results/cvrp_lkh/Vrp-Set-X-n209/Vrp-Set-X-n209-lkh/0.lkh1.tour" ... done
Population:
  1: 0_3083235
Run 1: Cost = 0_3083235, Time = 70.72 sec. 

Successes/Runs = 0/1 
Cost.min = 3083235, Cost.avg = 3083235.00, Cost.max = 3083235
Gap.min = 0.0000%, Gap.avg = 0.0000%, Gap.max = 0.0000%
Penalty.min = 0, Penalty.avg = 0.00, Penalty.max = 0
Trials.min = 10000, Trials.avg = 10000.0, Trials.max = 10000
Time.min = 70.72 sec., Time.avg = 70.72 sec., Time.max = 70.72 sec.
Time.total = 70.78 sec.
  Size.min = 6, Size.max = 14, Penalty = 0
  Cost.min = 56773, Cost.max = 311970, Cost.sum = 3083235
Best CVRP solution:
  Cost = 0_3083235

