experiment/data/lkh-res/Vrp-Set-X-n209/Vrp-Set-X-n209-lkh/0.lkh1.tour
NAME : 0.3083235.tour
COMMENT : Length = 3083235
COMMENT : Found by LKH-3 [Keld Helsgaun] Tue Apr  9 04:10:35 2024
TYPE : TOUR
DIMENSION : 224
TOUR_SECTION
1
120
41
76
98
82
26
36
16
40
113
112
78
188
59
214
17
132
46
176
51
111
170
129
178
69
133
19
66
213
94
5
10
117
194
93
47
142
108
13
126
7
197
128
219
102
207
109
75
97
173
38
167
8
135
90
136
115
218
49
169
161
60
138
80
147
56
165
77
20
22
195
191
215
32
154
12
29
116
37
203
186
180
155
151
42
185
141
224
179
21
150
72
153
99
85
64
137
54
79
106
212
88
103
65
124
74
130
171
193
68
100
28
18
166
92
210
149
156
96
6
58
83
107
148
143
182
123
189
208
222
199
70
187
181
23
139
122
168
4
152
87
11
119
220
127
114
3
84
2
196
67
140
118
63
14
146
105
164
223
53
134
175
91
9
163
198
86
172
159
31
125
209
216
43
206
101
71
50
45
15
34
131
27
157
177
201
217
184
89
162
200
48
73
55
30
104
204
174
57
39
35
221
44
61
192
24
95
33
110
190
25
158
183
62
121
52
211
202
81
205
144
145
160
-1
EOF
